p cnf 4 128
d 1 2
d 2 2
d 3 2
d 4 2
1=0 2=0 0
3=1 2=0 0
1=0 2=0 0
2=0 3=0 0
3=1 2=1 0
1=0 2=1 0
2=0 4=1 0
2=0 1=0 0
1=0 3=0 0
3=1 1=0 0
2=0 1=1 0
2=0 3=0 0
4=1 3=1 0
1=0 2=0 0
3=1 4=1 0
4=1 3=0 0
3=1 2=1 0
3=1 2=1 0
2=0 4=1 0
4=1 1=0 0
3=1 2=0 0
4=1 1=1 0
2=0 4=1 0
2=0 1=0 0
4=1 2=0 0
2=0 3=0 0
4=1 1=1 0
3=1 1=0 0
1=0 4=1 0
1=0 3=1 0
1=0 4=0 0
4=1 1=0 0
2=0 1=0 0
3=1 4=1 0
4=1 3=1 0
4=1 2=0 0
4=1 3=0 0
2=0 4=0 0
2=0 3=1 0
3=1 1=0 0
3=1 4=0 0
2=0 4=1 0
4=1 2=1 0
3=1 1=1 0
2=0 3=0 0
1=0 4=0 0
3=1 2=1 0
2=0 3=1 0
4=1 2=1 0
4=1 1=1 0
3=1 1=0 0
3=1 4=1 0
2=0 1=1 0
4=1 2=0 0
2=0 4=0 0
2=0 4=1 0
2=0 3=1 0
4=1 3=1 0
1=0 4=0 0
1=0 3=1 0
2=0 3=1 0
1=0 3=0 0
2=0 4=0 0
3=1 2=1 0
2=0 3=1 0
2=0 1=1 0
3=1 4=0 0
2=0 1=0 0
3=1 2=1 0
1=0 4=0 0
1=0 2=0 0
3=1 2=0 0
1=0 2=1 0
1=0 4=1 0
3=1 1=0 0
1=0 2=0 0
1=0 4=0 0
2=0 3=0 0
2=0 3=1 0
2=0 3=0 0
3=1 2=1 0
4=1 2=1 0
4=1 3=0 0
4=1 3=1 0
3=1 1=1 0
3=1 1=0 0
3=1 1=0 0
1=0 2=0 0
4=1 3=0 0
1=0 2=0 0
3=1 4=1 0
4=1 1=1 0
2=0 3=0 0
4=1 1=1 0
1=0 4=0 0
1=0 2=0 0
3=1 2=1 0
1=0 4=0 0
2=0 3=0 0
4=1 2=0 0
3=1 2=1 0
1=0 2=0 0
1=0 2=0 0
3=1 2=1 0
3=1 1=0 0
1=0 3=0 0
1=0 3=1 0
2=0 4=1 0
4=1 3=1 0
4=1 1=1 0
1=0 4=1 0
3=1 2=1 0
3=1 1=0 0
1=0 4=0 0
3=1 1=1 0
3=1 4=0 0
1=0 4=1 0
1=0 4=1 0
2=0 3=1 0
1=0 4=0 0
4=1 2=1 0
4=1 1=1 0
3=1 2=0 0
4=1 1=0 0
3=1 1=1 0
2=0 4=1 0
1=0 4=1 0
1=0 3=1 0
